Maximize
score:+ 431.0 s0+ 306.0 s1+ 547.0 s2+ 813.0 s3+ 272.0 s4+ 390.0 s5+ 497.0 s6+ 586.0 s7+ 327.0 s8+ 544.0 s9+ 699.0 s10+ 874.0 s11+ 665.0 s12+ 240.0 s13+ 487.0 s14+ 463.0 s15+ 710.0 s16+ 136.0 s17+ 271.0 s18+ 343.0 s19+ 174.0 s20+ 155.0 s21+ 290.0 s22+ 651.0 s23+ 407.0 s24+ 703.0 s25+ 269.0 s26+ 259.0 s27+ 583.0 s28+ 446.0 s29+ 477.0 s30+ 325.0 s31+ 471.0 s32+ 472.0 s33+ 536.0 s34+ 134.0 s35+ 720.0 s36+ 372.0 s37+ 961.0 s38+ 448.0 s39+ 188.0 s40+ 567.0 s41+ 261.0 s42+ 581.0 s43+ 246.0 s44+ 710.0 s45+ 136.0 s46+ 271.0 s47+ 343.0 s48+ 174.0 s49+ 155.0 s50+ 290.0 s51+ 651.0 s52+ 407.0 s53+ 703.0 s54+ 487.0 s55+ 483.0 s56+ 259.0 s57+ 583.0 s58+ 446.0 s59+ 477.0 s60+ 325.0 s61+ 471.0 s62+ 472.0 s63+ 536.0 s64+ 134.0 s65+ 720.0 s66+ 400.0 s67+ 961.0 s68+ 448.0 s69+ 188.0 s70+ 567.0 s71+ 367.0 s72+ 261.0 s73+ 581.0 s74+ 246.0 s75+ 870.0 s76+ 525.0 s77+ 418.0 s78+ 308.0 s79+ 349.0 s80+ 411.0 s81+ 301.0 s82+ 649.0 s83+ 142.0 s84+ 510.0 s85+ 726.0 s86+ 142.0 s87+ 472.0 s88+ 134.0 s89+ 870.0 s90+ 525.0 s91+ 418.0 s92+ 308.0 s93+ 349.0 s94+ 411.0 s95+ 649.0 s96+ 142.0 s97+ 510.0 s98+ 264.0 s99+ 596.0 s100+ 142.0 s101+ 472.0 s102+ 134.0 s103+ 277.0 s104+ 645.0 s105+ 415.0 s106+ 507.0 s107+ 697.0 s108+ 406.0 s109+ 322.0 s110+ 141.0 s111+ 803.0 s112+ 428.0 s113+ 464.0 s114+ 362.0 s115+ 752.0 s116+ 470.0 s117+ 566.0 s118+ 820.0 s119+ 342.0 s120+ 315.0 s121+ 219.0 s122+ 622.0 s123+ 300.0 s124+ 950.0 s125+ 468.0 s126+ 413.0 s127+ 793.0 s128+ 619.0 s129+ 416.0 s130+ 314.0 s131+ 1345.0 s132+ 407.0 s133

Subject To
length: s0 + s1 + s2 + s3 + s4 + s5 + s6 + s7 + s8 + s9 + s10 + s11 + s12 + s13 + s14 + s15 + s16 + s17 + s18 + s19 + s20 + s21 + s22 + s23 + s24 + s25 + s26 + s27 + s28 + s29 + s30 + s31 + s32 + s33 + s34 + s35 + s36 + s37 + s38 + s39 + s40 + s41 + s42 + s43 + s44 + s45 + s46 + s47 + s48 + s49 + s50 + s51 + s52 + s53 + s54 + s55 + s56 + s57 + s58 + s59 + s60 + s61 + s62 + s63 + s64 + s65 + s66 + s67 + s68 + s69 + s70 + s71 + s72 + s73 + s74 + s75 + s76 + s77 + s78 + s79 + s80 + s81 + s82 + s83 + s84 + s85 + s86 + s87 + s88 + s89 + s90 + s91 + s92 + s93 + s94 + s95 + s96 + s97 + s98 + s99 + s100 + s101 + s102 + s103 + s104 + s105 + s106 + s107 + s108 + s109 + s110 + s111 + s112 + s113 + s114 + s115 + s116 + s117 + s118 + s119 + s120 + s121 + s122 + s123 + s124 + s125 + s126 + s127 + s128 + s129 + s130 + s131 + s132 + s133 < 4

Binary
s0
s1
s2
s3
s4
s5
s6
s7
s8
s9
s10
s11
s12
s13
s14
s15
s16
s17
s18
s19
s20
s21
s22
s23
s24
s25
s26
s27
s28
s29
s30
s31
s32
s33
s34
s35
s36
s37
s38
s39
s40
s41
s42
s43
s44
s45
s46
s47
s48
s49
s50
s51
s52
s53
s54
s55
s56
s57
s58
s59
s60
s61
s62
s63
s64
s65
s66
s67
s68
s69
s70
s71
s72
s73
s74
s75
s76
s77
s78
s79
s80
s81
s82
s83
s84
s85
s86
s87
s88
s89
s90
s91
s92
s93
s94
s95
s96
s97
s98
s99
s100
s101
s102
s103
s104
s105
s106
s107
s108
s109
s110
s111
s112
s113
s114
s115
s116
s117
s118
s119
s120
s121
s122
s123
s124
s125
s126
s127
s128
s129
s130
s131
s132
s133